<number of tasks>
250

<cycle time>
1000

<order strength>
0.597


<task times>
1 165
2 57
3 327
4 167
5 76
6 113
7 110
8 506
9 176
10 273
11 217
12 46
13 302
14 269
15 225
16 515
17 253
18 116
19 137
20 394
21 240
22 62
23 421
24 398
25 134
26 134
27 43
28 245
29 178
30 38
31 318
32 313
33 26
34 91
35 480
36 460
37 371
38 482
39 47
40 124
41 103
42 323
43 564
44 225
45 148
46 103
47 193
48 262
49 475
50 23
51 70
52 83
53 404
54 482
55 61
56 111
57 476
58 66
59 578
60 392
61 116
62 60
63 114
64 321
65 223
66 470
67 534
68 53
69 502
70 234
71 270
72 203
73 31
74 37
75 409
76 167
77 65
78 99
79 208
80 107
81 226
82 170
83 47
84 118
85 47
86 104
87 213
88 37
89 151
90 517
91 446
92 145
93 246
94 500
95 494
96 509
97 517
98 300
99 253
100 177
101 205
102 364
103 32
104 92
105 539
106 134
107 487
108 479
109 365
110 361
111 209
112 373
113 236
114 491
115 202
116 447
117 101
118 289
119 236
120 203
121 108
122 176
123 177
124 125
125 49
126 212
127 189
128 24
129 246
130 209
131 38
132 32
133 534
134 212
135 67
136 322
137 498
138 90
139 89
140 66
141 82
142 485
143 241
144 378
145 197
146 483
147 122
148 65
149 239
150 533
151 226
152 57
153 287
154 70
155 29
156 318
157 163
158 153
159 243
160 247
161 156
162 217
163 276
164 197
165 455
166 119
167 118
168 381
169 57
170 271
171 87
172 246
173 286
174 147
175 133
176 43
177 288
178 105
179 312
180 42
181 217
182 146
183 308
184 228
185 255
186 65
187 53
188 76
189 265
190 544
191 282
192 147
193 85
194 127
195 405
196 437
197 24
198 228
199 517
200 24
201 213
202 165
203 509
204 231
205 53
206 388
207 233
208 161
209 108
210 468
211 323
212 176
213 376
214 53
215 182
216 92
217 276
218 259
219 176
220 305
221 133
222 203
223 261
224 129
225 120
226 313
227 28
228 109
229 186
230 117
231 24
232 481
233 370
234 189
235 147
236 237
237 248
238 62
239 430
240 538
241 28
242 231
243 476
244 93
245 211
246 227
247 177
248 100
249 33
250 152

<precedence relations>
1,78
2,78
3,20
4,172
5,103
6,104
7,10
7,11
7,12
7,15
7,17
8,9
8,13
8,14
8,16
8,18
8,19
9,20
10,20
11,20
12,20
13,40
14,173
15,103
16,103
17,103
18,103
19,21
19,22
19,23
19,24
19,25
19,26
20,29
20,30
20,31
20,32
20,33
20,34
20,35
20,36
20,37
20,38
21,40
22,40
23,173
24,103
25,103
26,27
26,28
26,60
26,63
27,78
28,78
29,40
30,48
30,81
30,90
31,39
31,43
31,45
31,62
31,75
32,41
32,43
32,46
32,106
33,42
33,47
33,97
34,55
34,77
35,39
35,70
36,44
36,83
37,173
38,39
38,65
38,74
39,78
40,49
40,50
40,51
40,52
40,53
40,54
41,125
42,125
43,200
44,200
45,103
46,127
47,57
48,49
48,55
48,56
49,78
50,104
51,127
52,96
52,105
52,126
53,58
53,63
53,66
54,59
54,60
54,61
54,62
54,64
54,82
55,232
56,103
57,59
57,75
57,82
57,99
58,232
59,125
60,125
61,103
62,104
63,65
63,68
63,69
64,65
64,66
64,67
64,81
64,89
64,104
65,103
66,127
67,196
68,70
68,72
68,73
68,74
68,76
68,77
69,70
69,71
69,73
69,75
69,90
69,96
70,208
71,208
72,78
73,125
74,173
75,196
76,81
76,82
77,79
77,80
77,83
78,84
78,85
78,86
78,87
78,88
78,89
78,92
78,100
79,125
80,103
81,196
82,91
82,96
83,90
83,92
83,93
83,94
84,101
84,121
85,95
85,96
85,154
86,96
86,102
87,128
88,97
88,98
89,232
90,95
90,99
91,98
91,100
92,98
92,103
92,105
92,106
93,197
93,198
94,128
94,162
95,232
96,103
97,104
98,104
99,104
100,101
100,102
100,103
100,105
100,106
100,143
101,125
102,125
103,108
103,109
103,110
103,111
103,112
103,122
103,156
104,107
104,113
104,114
104,115
104,116
104,117
104,118
104,119
104,120
104,121
105,154
106,164
106,198
106,199
107,125
108,127
109,166
110,123
111,145
111,159
111,165
112,146
112,147
112,176
114,126
114,129
114,151
114,152
114,160
115,126
115,128
115,152
116,194
116,198
116,236
117,167
118,159
119,124
119,129
120,123
121,129
121,155
122,128
123,172
124,172
125,130
125,131
125,132
125,133
125,134
125,135
125,136
126,173
127,137
127,138
127,139
127,140
127,141
127,142
128,150
129,142
129,143
129,144
130,150
131,236
132,151
133,145
133,147
134,153
135,149
136,152
136,153
137,157
137,196
137,197
137,198
138,145
138,171
138,222
139,145
139,148
139,152
140,235
141,146
141,198
142,196
143,146
143,153
144,165
145,172
146,173
147,173
148,200
149,196
150,155
151,171
152,165
152,166
153,154
154,156
154,157
154,164
154,165
155,158
155,159
156,161
156,167
156,169
156,176
157,162
157,168
158,160
158,161
158,163
158,165
159,163
159,164
160,196
161,166
162,170
163,166
163,169
163,173
163,176
164,235
165,167
165,168
166,172
167,173
168,171
168,175
168,207
169,174
169,235
170,176
170,189
170,194
170,232
170,235
171,208
172,177
172,178
172,179
172,180
172,181
172,189
173,182
173,183
173,184
173,185
173,186
173,187
173,188
174,189
174,194
174,206
174,207
175,208
175,222
176,248
177,208
178,191
179,192
179,244
180,197
180,249
182,192
182,245
183,206
184,190
185,194
185,235
185,236
187,200
188,192
188,193
190,196
191,195
191,198
192,207
192,248
193,197
193,199
193,231
194,242
195,200
196,199
196,201
196,202
196,203
196,204
196,205
196,207
197,236
198,206
199,208
200,209
200,210
200,211
200,212
200,213
200,214
200,215
200,216
200,217
200,218
200,219
200,220
200,221
202,248
203,222
203,245
206,242
207,229
208,223
208,224
208,225
208,226
208,227
208,228
211,231
211,246
211,247
212,229
215,246
218,233
218,246
219,231
219,235
220,230
223,232
225,245
228,233
228,235
228,236
231,234
232,237
232,238
232,239
232,240
232,241
235,243
236,242
237,247
238,245
242,244
242,246
243,245
244,250
245,249
247,248
247,250

<end>
